letting n =  10
letting blocks =  [[1, 2], [1, 3], [1, 6], [1, 9], [1, 10], [2, 3], [2, 5], [2, 6], [2, 7], [2, 8], [2, 9], [3, 6], [3, 9], [3, 10], [4, 3], [4, 5], [4, 6], [4, 9], [4, 10], [5, 8], [5, 9], [5, 10], [6, 5], [6, 10], [7, 2], [7, 3], [7, 5], [7, 6], [8, 2], [8, 3], [8, 5], [8, 7], [9, 1], [9, 7], [10, 1], [10, 2], [10, 8], [10, 10]]
